Version identifier: 20.1.0.0 | 2020-11-10 | 9bedb6d68
CPXPARAM_Threads                                 1
CPXPARAM_TimeLimit                               7200
CPXPARAM_MIP_Tolerances_MIPGap                   0
Generic callback                                 0x60
1 of 1 MIP starts provided solutions.
MIP start 'm1' defined initial solution with objective 3215.5279.
Tried aggregator 1 time.
Reduced MIP has 640801 rows, 640801 columns, and 1920800 nonzeros.
Reduced MIP has 800 binaries, 0 generals, 0 SOSs, and 0 indicators.
Presolve time = 0.64 sec. (607.18 ticks)
Probing time = 0.08 sec. (80.04 ticks)
Tried aggregator 1 time.
Reduced MIP has 640801 rows, 640801 columns, and 1920800 nonzeros.
Reduced MIP has 800 binaries, 0 generals, 0 SOSs, and 0 indicators.
Presolve time = 0.64 sec. (596.80 ticks)
Probing time = 0.08 sec. (80.04 ticks)
MIP emphasis: balance optimality and feasibility.
MIP search method: dynamic search.
Parallel mode: none, using 1 thread.
Root relaxation solution time = 0.18 sec. (246.74 ticks)

        Nodes                                         Cuts/
   Node  Left     Objective  IInf  Best Integer    Best Bound    ItCnt     Gap

*     0+    0                         3215.5279     4368.0000            35.84%
      0     0     3313.0784    32     3215.5279     4368.0000        0   35.84%
      0     2     3313.0784    32     3215.5279     3313.0777        0    3.03%
Elapsed time = 690.85 sec. (749176.98 ticks, tree = 0.01 MB, solutions = 1)
      1     3     3242.4778    28     3215.5279     3313.0775   236873    3.03%
      2     4     3238.3685    28     3215.5279     3242.4778   292716    0.84%
      3     5     3242.3951    30     3215.5279     3242.4776   294110    0.84%

User cuts applied:  12

Root node processing (before b&c):
  Real time             =  690.82 sec. (749171.96 ticks)
Sequential b&c:
  Real time             = 6509.37 sec. (4290530.13 ticks)
                          ------------
Total (root+branch&cut) = 7200.20 sec. (5039702.09 ticks)
@Parameters: 
is_S_cut                                true
is_add_all_yinF                         true
is_start_value                          true
is_usercut                              true
is_visualization                        false
uc_only_rootnode                        false

data                                    Qi
fn                                      data/Qi/instance_800_800.csv
mode                                    ZLP
solver                                  cplex

p                                       10
r                                       2

EPS                                     1.0e-06
EPS_vio                                 1.0e-04
beta                                    0.10
gap                                     0.00
nodelimit                               Inf
timelimit                               7200.00


@PrintInfos
ItCnt: 297684
Current gap: 0.84 %
Termination Status: TIME_LIMIT
Primal Status: FEASIBLE_POINT
Solve Time: 7200.20 sec
Objective Value: 3215.527950
Number of Nodes:      4

CutInfo: [phase] num / time (sec) 
ZLP             [phase1]     0 / 0.00 [rLC]     2 / 10.04 [rUC]     2 / 7.49 [sLC]     0 / 0.00 [sUC]    11 / 64.24 
OldSubmodular   [phase1]     0 / 0.00 [rLC]     0 / 0.00 [rUC]     0 / 0.00 [sLC]     0 / 0.00 [sUC]     0 / 0.00 
NewSubmodular   [phase1]     0 / 0.00 [rLC]     0 / 0.00 [rUC]     0 / 0.00 [sLC]     0 / 0.00 [sUC]     0 / 0.00 
PMP             [phase1]     0 / 0.00 [rLC]     3 / 7.02 [rUC]     2 / 5.05 [sLC]     0 / 0.00 [sUC]    17 / 45.94 
Separation Round: [phase1] 0  [rLC] 3  [rUC] 2  [sLC] 0  [sUC] 17
Root Best Bound 3242.477766
Root Best Integer: 3215.527950
Best Bound: 3242.477766
Best Integer: 3215.527950

